Cost: 374
0-4-52-34-46-0
0-6-33-51-17-0
0-40-9-39-12-26-0
0-27-13-15-29-45-30-0
0-8-19-14-11-10-0
0-23-43-1-22-28-2-0
Cost: 374
0-4-52-34-46-0
0-6-33-51-17-0
0-40-9-39-12-26-0
0-27-13-15-29-45-30-0
0-8-19-14-11-10-0
0-23-43-1-22-28-2-0
Cost: 374
0-4-52-34-46-0
0-6-33-51-17-0
0-40-9-39-12-26-0
0-27-13-15-29-45-30-0
0-8-19-14-11-10-0
0-23-43-1-22-28-2-0
Cost: 374
0-4-52-34-46-0
0-6-33-51-17-0
0-40-9-39-12-26-0
0-27-13-15-29-45-30-0
0-8-19-14-11-10-0
0-23-43-1-22-28-2-0
Cost: 374
0-4-52-34-46-0
0-6-33-51-17-0
0-40-9-39-12-26-0
0-27-13-15-29-45-30-0
0-8-19-14-11-10-0
0-23-43-1-22-28-2-0
Cost: 374
0-4-52-34-46-0
0-6-33-51-17-0
0-40-9-39-12-26-0
0-27-13-15-29-45-30-0
0-8-19-14-11-10-0
0-23-43-1-22-28-2-0
Cost: 374
0-4-52-34-46-0
0-6-33-51-17-0
0-40-9-39-12-26-0
0-27-13-15-29-45-30-0
0-8-19-14-11-10-0
0-23-43-1-22-28-2-0
Cost: 374
0-4-52-34-46-0
0-6-33-51-17-0
0-40-9-39-12-26-0
0-27-13-15-29-45-30-0
0-8-19-14-11-10-0
0-23-43-1-22-28-2-0
Cost: 374
0-4-52-34-46-0
0-6-33-51-17-0
0-40-9-39-12-26-0
0-27-13-15-29-45-30-0
0-8-19-14-11-10-0
0-23-43-1-22-28-2-0
Cost: 374
0-4-52-34-46-0
0-6-33-51-17-0
0-40-9-39-12-26-0
0-27-13-15-29-45-30-0
0-8-19-14-11-10-0
0-23-43-1-22-28-2-0
Cost: 374
0-8-19-14-11-10-0
0-4-52-46-34-0
0-6-33-51-17-0
0-30-45-29-15-13-27-0
0-2-28-22-1-43-23-0
0-26-12-39-9-40-0
Cost: 374
0-8-19-14-11-10-0
0-4-52-46-34-0
0-6-33-51-17-0
0-30-45-29-15-13-27-0
0-2-28-22-1-43-23-0
0-26-12-39-9-40-0
Cost: 374
0-8-19-14-11-10-0
0-4-52-46-34-0
0-6-33-51-17-0
0-30-45-29-15-13-27-0
0-2-28-22-1-43-23-0
0-26-12-39-9-40-0
Cost: 374
0-8-19-14-11-10-0
0-4-52-46-34-0
0-6-33-51-17-0
0-30-45-29-15-13-27-0
0-2-28-22-1-43-23-0
0-26-12-39-9-40-0
Cost: 374
0-8-19-14-11-10-0
0-4-52-46-34-0
0-6-33-51-17-0
0-30-45-29-15-13-27-0
0-2-28-22-1-43-23-0
0-26-12-39-9-40-0
Cost: 374
0-8-19-14-11-10-0
0-4-52-46-34-0
0-6-33-51-17-0
0-30-45-29-15-13-27-0
0-2-28-22-1-43-23-0
0-26-12-39-9-40-0
Cost: 374
0-8-19-14-11-10-0
0-4-52-46-34-0
0-6-33-51-17-0
0-30-45-29-15-13-27-0
0-2-28-22-1-43-23-0
0-26-12-39-9-40-0
Cost: 374
0-8-19-14-11-10-0
0-4-52-46-34-0
0-6-33-51-17-0
0-30-45-29-15-13-27-0
0-2-28-22-1-43-23-0
0-26-12-39-9-40-0
Cost: 374
0-8-19-14-11-10-0
0-4-52-46-34-0
0-6-33-51-17-0
0-30-45-29-15-13-27-0
0-2-28-22-1-43-23-0
0-26-12-39-9-40-0
Cost: 374
0-8-19-14-11-10-0
0-4-52-46-34-0
0-6-33-51-17-0
0-30-45-29-15-13-27-0
0-2-28-22-1-43-23-0
0-26-12-39-9-40-0
Cost: 374
0-8-19-14-11-10-0
0-4-52-46-34-0
0-6-33-51-17-0
0-30-45-29-15-13-27-0
0-2-28-22-1-43-23-0
0-26-12-39-9-40-0
Cost: 374
0-8-19-14-11-10-0
0-4-52-46-34-0
0-6-33-51-17-0
0-30-45-29-15-13-27-0
0-2-28-22-1-43-23-0
0-26-12-39-9-40-0
Cost: 374
0-23-43-1-22-28-2-0
0-6-33-51-17-0
0-4-52-34-46-0
0-8-19-14-11-10-0
0-30-45-29-15-13-27-0
0-26-12-39-9-40-0
Cost: 374
0-8-19-14-11-10-0
0-4-52-46-34-0
0-6-33-51-17-0
0-30-45-29-15-13-27-0
0-2-28-22-1-43-23-0
0-26-12-39-9-40-0
Cost: 374
0-8-19-14-11-10-0
0-4-52-46-34-0
0-6-33-51-17-0
0-30-45-29-15-13-27-0
0-2-28-22-1-43-23-0
0-26-12-39-9-40-0
Cost: 374
0-8-19-14-11-10-0
0-4-52-46-34-0
0-6-33-51-17-0
0-30-45-29-15-13-27-0
0-2-28-22-1-43-23-0
0-26-12-39-9-40-0
Cost: 374
0-34-46-52-4-0
0-6-33-51-17-0
0-10-11-14-19-8-0
0-27-13-15-29-45-30-0
0-26-12-39-9-40-0
0-23-43-1-22-28-2-0
Cost: 374
0-10-11-14-19-8-0
0-40-9-39-12-26-0
0-23-43-1-22-28-2-0
0-34-46-52-4-0
0-17-51-33-6-0
0-30-45-29-15-13-27-0
Cost: 374
0-27-13-15-29-45-30-0
0-4-52-34-46-0
0-26-12-39-9-40-0
0-6-33-51-17-0
0-2-28-22-1-43-23-0
0-10-11-14-19-8-0
Cost: 374
0-40-9-39-12-26-0
0-8-19-14-11-10-0
0-6-33-51-17-0
0-27-13-15-29-45-30-0
0-4-52-46-34-0
0-23-43-1-22-28-2-0
Cost: 374
0-46-34-4-0
0-23-43-1-22-28-30-0
0-17-51-33-2-6-0
0-45-29-15-13-27-52-0
0-10-11-14-19-8-0
0-40-9-39-12-26-0
